\ Model _copy
\ LP format - for model browsing. Use MPS format to capture full model detail.
Maximize
 
Subject To
 R342: y_Español_de_Talca_AB_Ancud_1_Gimnasio_Colegio_Los_Leones_2
   + y_Español_de_Talca_AB_Ancud_1_Gimnasio_Regional_de_Talca_2
   + y_Español_de_Talca_AB_Ancud_1_Gimnasio_Municipal_de_San_Fernando_2
   + y_Español_de_Talca_AB_Ancud_1_Estadio_Palestino_2
   + y_Español_de_Talca_AB_Ancud_1_Casa_del_Deporte_2
   + y_Español_de_Talca_AB_Ancud_1_Gimnasio_Municipal_de_Puente_Alto_2
   + y_Español_de_Talca_AB_Ancud_1_Coliseo_Municipal_Antonio_Azurmendy_2
   + y_Español_de_Talca_AB_Ancud_1_Gimnasio_Fiscal_de_Ancud_2
   + y_Español_de_Talca_AB_Ancud_1_Gimnasio_Monumental_María_Gallardo_2
   + y_Español_de_Talca_AB_Ancud_1_Gimnasio_Fiscal_de_Castro_2
   + y_Español_de_Talca_AB_Ancud_1_Gimnasio_de_Las_Ánimas_2
   + y_Español_de_Talca_AB_Ancud_1_Gimnasio_Municipal_Mario_Merchant_Binder_2
   <= 0.5
 R346: y_Español_de_Talca_AB_Ancud_2_Gimnasio_Colegio_Los_Leones_2
   + y_Español_de_Talca_AB_Ancud_2_Gimnasio_Regional_de_Talca_2
   + y_Español_de_Talca_AB_Ancud_2_Gimnasio_Municipal_de_San_Fernando_2
   + y_Español_de_Talca_AB_Ancud_2_Estadio_Palestino_2
   + y_Español_de_Talca_AB_Ancud_2_Casa_del_Deporte_2
   + y_Español_de_Talca_AB_Ancud_2_Gimnasio_Municipal_de_Puente_Alto_2
   + y_Español_de_Talca_AB_Ancud_2_Coliseo_Municipal_Antonio_Azurmendy_2
   + y_Español_de_Talca_AB_Ancud_2_Gimnasio_Fiscal_de_Ancud_2
   + y_Español_de_Talca_AB_Ancud_2_Gimnasio_Monumental_María_Gallardo_2
   + y_Español_de_Talca_AB_Ancud_2_Gimnasio_Fiscal_de_Castro_2
   + y_Español_de_Talca_AB_Ancud_2_Gimnasio_de_Las_Ánimas_2
   + y_Español_de_Talca_AB_Ancud_2_Gimnasio_Municipal_Mario_Merchant_Binder_2
   <= 0.5
 R350: y_Español_de_Talca_AB_Ancud_3_Gimnasio_Colegio_Los_Leones_2
   + y_Español_de_Talca_AB_Ancud_3_Gimnasio_Regional_de_Talca_2
   + y_Español_de_Talca_AB_Ancud_3_Gimnasio_Municipal_de_San_Fernando_2
   + y_Español_de_Talca_AB_Ancud_3_Estadio_Palestino_2
   + y_Español_de_Talca_AB_Ancud_3_Casa_del_Deporte_2
   + y_Español_de_Talca_AB_Ancud_3_Gimnasio_Municipal_de_Puente_Alto_2
   + y_Español_de_Talca_AB_Ancud_3_Coliseo_Municipal_Antonio_Azurmendy_2
   + y_Español_de_Talca_AB_Ancud_3_Gimnasio_Fiscal_de_Ancud_2
   + y_Español_de_Talca_AB_Ancud_3_Gimnasio_Monumental_María_Gallardo_2
   + y_Español_de_Talca_AB_Ancud_3_Gimnasio_Fiscal_de_Castro_2
   + y_Español_de_Talca_AB_Ancud_3_Gimnasio_de_Las_Ánimas_2
   + y_Español_de_Talca_AB_Ancud_3_Gimnasio_Municipal_Mario_Merchant_Binder_2
   <= 0.5
 R355: y_Español_de_Talca_AB_Ancud_4_Gimnasio_Colegio_Los_Leones_2
   + y_Español_de_Talca_AB_Ancud_4_Gimnasio_Regional_de_Talca_2
   + y_Español_de_Talca_AB_Ancud_4_Gimnasio_Municipal_de_San_Fernando_2
   + y_Español_de_Talca_AB_Ancud_4_Estadio_Palestino_2
   + y_Español_de_Talca_AB_Ancud_4_Casa_del_Deporte_2
   + y_Español_de_Talca_AB_Ancud_4_Gimnasio_Municipal_de_Puente_Alto_2
   + y_Español_de_Talca_AB_Ancud_4_Coliseo_Municipal_Antonio_Azurmendy_2
   + y_Español_de_Talca_AB_Ancud_4_Gimnasio_Fiscal_de_Ancud_2
   + y_Español_de_Talca_AB_Ancud_4_Gimnasio_Monumental_María_Gallardo_2
   + y_Español_de_Talca_AB_Ancud_4_Gimnasio_Fiscal_de_Castro_2
   + y_Español_de_Talca_AB_Ancud_4_Gimnasio_de_Las_Ánimas_2
   + y_Español_de_Talca_AB_Ancud_4_Gimnasio_Municipal_Mario_Merchant_Binder_2
   <= 0.5
 R359: y_Español_de_Talca_AB_Ancud_5_Gimnasio_Colegio_Los_Leones_2
   + y_Español_de_Talca_AB_Ancud_5_Gimnasio_Regional_de_Talca_2
   + y_Español_de_Talca_AB_Ancud_5_Gimnasio_Municipal_de_San_Fernando_2
   + y_Español_de_Talca_AB_Ancud_5_Estadio_Palestino_2
   + y_Español_de_Talca_AB_Ancud_5_Casa_del_Deporte_2
   + y_Español_de_Talca_AB_Ancud_5_Gimnasio_Municipal_de_Puente_Alto_2
   + y_Español_de_Talca_AB_Ancud_5_Coliseo_Municipal_Antonio_Azurmendy_2
   + y_Español_de_Talca_AB_Ancud_5_Gimnasio_Fiscal_de_Ancud_2
   + y_Español_de_Talca_AB_Ancud_5_Gimnasio_Monumental_María_Gallardo_2
   + y_Español_de_Talca_AB_Ancud_5_Gimnasio_Fiscal_de_Castro_2
   + y_Español_de_Talca_AB_Ancud_5_Gimnasio_de_Las_Ánimas_2
   + y_Español_de_Talca_AB_Ancud_5_Gimnasio_Municipal_Mario_Merchant_Binder_2
   <= 0.5
 R1562: y_AB_Ancud_Español_de_Talca_1_Gimnasio_Colegio_Los_Leones_2
   + y_AB_Ancud_Español_de_Talca_1_Gimnasio_Regional_de_Talca_2
   + y_AB_Ancud_Español_de_Talca_1_Gimnasio_Municipal_de_San_Fernando_2
   + y_AB_Ancud_Español_de_Talca_1_Estadio_Palestino_2
   + y_AB_Ancud_Español_de_Talca_1_Casa_del_Deporte_2
   + y_AB_Ancud_Español_de_Talca_1_Gimnasio_Municipal_de_Puente_Alto_2
   + y_AB_Ancud_Español_de_Talca_1_Coliseo_Municipal_Antonio_Azurmendy_2
   + y_AB_Ancud_Español_de_Talca_1_Gimnasio_Fiscal_de_Ancud_2
   + y_AB_Ancud_Español_de_Talca_1_Gimnasio_Monumental_María_Gallardo_2
   + y_AB_Ancud_Español_de_Talca_1_Gimnasio_Fiscal_de_Castro_2
   + y_AB_Ancud_Español_de_Talca_1_Gimnasio_de_Las_Ánimas_2
   + y_AB_Ancud_Español_de_Talca_1_Gimnasio_Municipal_Mario_Merchant_Binder_2
   <= 0.5
 R1567: y_AB_Ancud_Español_de_Talca_2_Gimnasio_Colegio_Los_Leones_2
   + y_AB_Ancud_Español_de_Talca_2_Gimnasio_Regional_de_Talca_2
   + y_AB_Ancud_Español_de_Talca_2_Gimnasio_Municipal_de_San_Fernando_2
   + y_AB_Ancud_Español_de_Talca_2_Estadio_Palestino_2
   + y_AB_Ancud_Español_de_Talca_2_Casa_del_Deporte_2
   + y_AB_Ancud_Español_de_Talca_2_Gimnasio_Municipal_de_Puente_Alto_2
   + y_AB_Ancud_Español_de_Talca_2_Coliseo_Municipal_Antonio_Azurmendy_2
   + y_AB_Ancud_Español_de_Talca_2_Gimnasio_Fiscal_de_Ancud_2
   + y_AB_Ancud_Español_de_Talca_2_Gimnasio_Monumental_María_Gallardo_2
   + y_AB_Ancud_Español_de_Talca_2_Gimnasio_Fiscal_de_Castro_2
   + y_AB_Ancud_Español_de_Talca_2_Gimnasio_de_Las_Ánimas_2
   + y_AB_Ancud_Español_de_Talca_2_Gimnasio_Municipal_Mario_Merchant_Binder_2
   <= 0.5
 R1571: y_AB_Ancud_Español_de_Talca_3_Gimnasio_Colegio_Los_Leones_2
   + y_AB_Ancud_Español_de_Talca_3_Gimnasio_Regional_de_Talca_2
   + y_AB_Ancud_Español_de_Talca_3_Gimnasio_Municipal_de_San_Fernando_2
   + y_AB_Ancud_Español_de_Talca_3_Estadio_Palestino_2
   + y_AB_Ancud_Español_de_Talca_3_Casa_del_Deporte_2
   + y_AB_Ancud_Español_de_Talca_3_Gimnasio_Municipal_de_Puente_Alto_2
   + y_AB_Ancud_Español_de_Talca_3_Coliseo_Municipal_Antonio_Azurmendy_2
   + y_AB_Ancud_Español_de_Talca_3_Gimnasio_Fiscal_de_Ancud_2
   + y_AB_Ancud_Español_de_Talca_3_Gimnasio_Monumental_María_Gallardo_2
   + y_AB_Ancud_Español_de_Talca_3_Gimnasio_Fiscal_de_Castro_2
   + y_AB_Ancud_Español_de_Talca_3_Gimnasio_de_Las_Ánimas_2
   + y_AB_Ancud_Español_de_Talca_3_Gimnasio_Municipal_Mario_Merchant_Binder_2
   <= 0.5
 R1575: y_AB_Ancud_Español_de_Talca_4_Gimnasio_Colegio_Los_Leones_2
   + y_AB_Ancud_Español_de_Talca_4_Gimnasio_Regional_de_Talca_2
   + y_AB_Ancud_Español_de_Talca_4_Gimnasio_Municipal_de_San_Fernando_2
   + y_AB_Ancud_Español_de_Talca_4_Estadio_Palestino_2
   + y_AB_Ancud_Español_de_Talca_4_Casa_del_Deporte_2
   + y_AB_Ancud_Español_de_Talca_4_Gimnasio_Municipal_de_Puente_Alto_2
   + y_AB_Ancud_Español_de_Talca_4_Coliseo_Municipal_Antonio_Azurmendy_2
   + y_AB_Ancud_Español_de_Talca_4_Gimnasio_Fiscal_de_Ancud_2
   + y_AB_Ancud_Español_de_Talca_4_Gimnasio_Monumental_María_Gallardo_2
   + y_AB_Ancud_Español_de_Talca_4_Gimnasio_Fiscal_de_Castro_2
   + y_AB_Ancud_Español_de_Talca_4_Gimnasio_de_Las_Ánimas_2
   + y_AB_Ancud_Español_de_Talca_4_Gimnasio_Municipal_Mario_Merchant_Binder_2
   <= 0.5
 R1579: y_AB_Ancud_Español_de_Talca_5_Gimnasio_Colegio_Los_Leones_2
   + y_AB_Ancud_Español_de_Talca_5_Gimnasio_Regional_de_Talca_2
   + y_AB_Ancud_Español_de_Talca_5_Gimnasio_Municipal_de_San_Fernando_2
   + y_AB_Ancud_Español_de_Talca_5_Estadio_Palestino_2
   + y_AB_Ancud_Español_de_Talca_5_Casa_del_Deporte_2
   + y_AB_Ancud_Español_de_Talca_5_Gimnasio_Municipal_de_Puente_Alto_2
   + y_AB_Ancud_Español_de_Talca_5_Coliseo_Municipal_Antonio_Azurmendy_2
   + y_AB_Ancud_Español_de_Talca_5_Gimnasio_Fiscal_de_Ancud_2
   + y_AB_Ancud_Español_de_Talca_5_Gimnasio_Monumental_María_Gallardo_2
   + y_AB_Ancud_Español_de_Talca_5_Gimnasio_Fiscal_de_Castro_2
   + y_AB_Ancud_Español_de_Talca_5_Gimnasio_de_Las_Ánimas_2
   + y_AB_Ancud_Español_de_Talca_5_Gimnasio_Municipal_Mario_Merchant_Binder_2
   <= 0.5
 R2711: y_Español_de_Talca_AB_Ancud_1_Gimnasio_Colegio_Los_Leones_2
   + y_Español_de_Talca_AB_Ancud_1_Gimnasio_Regional_de_Talca_2
   + y_Español_de_Talca_AB_Ancud_1_Gimnasio_Municipal_de_San_Fernando_2
   + y_Español_de_Talca_AB_Ancud_1_Estadio_Palestino_2
   + y_Español_de_Talca_AB_Ancud_1_Casa_del_Deporte_2
   + y_Español_de_Talca_AB_Ancud_1_Gimnasio_Municipal_de_Puente_Alto_2
   + y_Español_de_Talca_AB_Ancud_1_Coliseo_Municipal_Antonio_Azurmendy_2
   + y_Español_de_Talca_AB_Ancud_1_Gimnasio_Fiscal_de_Ancud_2
   + y_Español_de_Talca_AB_Ancud_1_Gimnasio_Monumental_María_Gallardo_2
   + y_Español_de_Talca_AB_Ancud_1_Gimnasio_Fiscal_de_Castro_2
   + y_Español_de_Talca_AB_Ancud_1_Gimnasio_de_Las_Ánimas_2
   + y_Español_de_Talca_AB_Ancud_1_Gimnasio_Municipal_Mario_Merchant_Binder_2
   + y_Español_de_Talca_AB_Ancud_2_Gimnasio_Colegio_Los_Leones_2
   + y_Español_de_Talca_AB_Ancud_2_Gimnasio_Regional_de_Talca_2
   + y_Español_de_Talca_AB_Ancud_2_Gimnasio_Municipal_de_San_Fernando_2
   + y_Español_de_Talca_AB_Ancud_2_Estadio_Palestino_2
   + y_Español_de_Talca_AB_Ancud_2_Casa_del_Deporte_2
   + y_Español_de_Talca_AB_Ancud_2_Gimnasio_Municipal_de_Puente_Alto_2
   + y_Español_de_Talca_AB_Ancud_2_Coliseo_Municipal_Antonio_Azurmendy_2
   + y_Español_de_Talca_AB_Ancud_2_Gimnasio_Fiscal_de_Ancud_2
   + y_Español_de_Talca_AB_Ancud_2_Gimnasio_Monumental_María_Gallardo_2
   + y_Español_de_Talca_AB_Ancud_2_Gimnasio_Fiscal_de_Castro_2
   + y_Español_de_Talca_AB_Ancud_2_Gimnasio_de_Las_Ánimas_2
   + y_Español_de_Talca_AB_Ancud_2_Gimnasio_Municipal_Mario_Merchant_Binder_2
   + y_Español_de_Talca_AB_Ancud_3_Gimnasio_Colegio_Los_Leones_2
   + y_Español_de_Talca_AB_Ancud_3_Gimnasio_Regional_de_Talca_2
   + y_Español_de_Talca_AB_Ancud_3_Gimnasio_Municipal_de_San_Fernando_2
   + y_Español_de_Talca_AB_Ancud_3_Estadio_Palestino_2
   + y_Español_de_Talca_AB_Ancud_3_Casa_del_Deporte_2
   + y_Español_de_Talca_AB_Ancud_3_Gimnasio_Municipal_de_Puente_Alto_2
   + y_Español_de_Talca_AB_Ancud_3_Coliseo_Municipal_Antonio_Azurmendy_2
   + y_Español_de_Talca_AB_Ancud_3_Gimnasio_Fiscal_de_Ancud_2
   + y_Español_de_Talca_AB_Ancud_3_Gimnasio_Monumental_María_Gallardo_2
   + y_Español_de_Talca_AB_Ancud_3_Gimnasio_Fiscal_de_Castro_2
   + y_Español_de_Talca_AB_Ancud_3_Gimnasio_de_Las_Ánimas_2
   + y_Español_de_Talca_AB_Ancud_3_Gimnasio_Municipal_Mario_Merchant_Binder_2
   + y_Español_de_Talca_AB_Ancud_4_Gimnasio_Colegio_Los_Leones_2
   + y_Español_de_Talca_AB_Ancud_4_Gimnasio_Regional_de_Talca_2
   + y_Español_de_Talca_AB_Ancud_4_Gimnasio_Municipal_de_San_Fernando_2
   + y_Español_de_Talca_AB_Ancud_4_Estadio_Palestino_2
   + y_Español_de_Talca_AB_Ancud_4_Casa_del_Deporte_2
   + y_Español_de_Talca_AB_Ancud_4_Gimnasio_Municipal_de_Puente_Alto_2
   + y_Español_de_Talca_AB_Ancud_4_Coliseo_Municipal_Antonio_Azurmendy_2
   + y_Español_de_Talca_AB_Ancud_4_Gimnasio_Fiscal_de_Ancud_2
   + y_Español_de_Talca_AB_Ancud_4_Gimnasio_Monumental_María_Gallardo_2
   + y_Español_de_Talca_AB_Ancud_4_Gimnasio_Fiscal_de_Castro_2
   + y_Español_de_Talca_AB_Ancud_4_Gimnasio_de_Las_Ánimas_2
   + y_Español_de_Talca_AB_Ancud_4_Gimnasio_Municipal_Mario_Merchant_Binder_2
   + y_Español_de_Talca_AB_Ancud_5_Gimnasio_Colegio_Los_Leones_2
   + y_Español_de_Talca_AB_Ancud_5_Gimnasio_Regional_de_Talca_2
   + y_Español_de_Talca_AB_Ancud_5_Gimnasio_Municipal_de_San_Fernando_2
   + y_Español_de_Talca_AB_Ancud_5_Estadio_Palestino_2
   + y_Español_de_Talca_AB_Ancud_5_Casa_del_Deporte_2
   + y_Español_de_Talca_AB_Ancud_5_Gimnasio_Municipal_de_Puente_Alto_2
   + y_Español_de_Talca_AB_Ancud_5_Coliseo_Municipal_Antonio_Azurmendy_2
   + y_Español_de_Talca_AB_Ancud_5_Gimnasio_Fiscal_de_Ancud_2
   + y_Español_de_Talca_AB_Ancud_5_Gimnasio_Monumental_María_Gallardo_2
   + y_Español_de_Talca_AB_Ancud_5_Gimnasio_Fiscal_de_Castro_2
   + y_Español_de_Talca_AB_Ancud_5_Gimnasio_de_Las_Ánimas_2
   + y_Español_de_Talca_AB_Ancud_5_Gimnasio_Municipal_Mario_Merchant_Binder_2
   + y_AB_Ancud_Español_de_Talca_1_Gimnasio_Colegio_Los_Leones_2
   + y_AB_Ancud_Español_de_Talca_1_Gimnasio_Regional_de_Talca_2
   + y_AB_Ancud_Español_de_Talca_1_Gimnasio_Municipal_de_San_Fernando_2
   + y_AB_Ancud_Español_de_Talca_1_Estadio_Palestino_2
   + y_AB_Ancud_Español_de_Talca_1_Casa_del_Deporte_2
   + y_AB_Ancud_Español_de_Talca_1_Gimnasio_Municipal_de_Puente_Alto_2
   + y_AB_Ancud_Español_de_Talca_1_Coliseo_Municipal_Antonio_Azurmendy_2
   + y_AB_Ancud_Español_de_Talca_1_Gimnasio_Fiscal_de_Ancud_2
   + y_AB_Ancud_Español_de_Talca_1_Gimnasio_Monumental_María_Gallardo_2
   + y_AB_Ancud_Español_de_Talca_1_Gimnasio_Fiscal_de_Castro_2
   + y_AB_Ancud_Español_de_Talca_1_Gimnasio_de_Las_Ánimas_2
   + y_AB_Ancud_Español_de_Talca_1_Gimnasio_Municipal_Mario_Merchant_Binder_2
   + y_AB_Ancud_Español_de_Talca_2_Gimnasio_Colegio_Los_Leones_2
   + y_AB_Ancud_Español_de_Talca_2_Gimnasio_Regional_de_Talca_2
   + y_AB_Ancud_Español_de_Talca_2_Gimnasio_Municipal_de_San_Fernando_2
   + y_AB_Ancud_Español_de_Talca_2_Estadio_Palestino_2
   + y_AB_Ancud_Español_de_Talca_2_Casa_del_Deporte_2
   + y_AB_Ancud_Español_de_Talca_2_Gimnasio_Municipal_de_Puente_Alto_2
   + y_AB_Ancud_Español_de_Talca_2_Coliseo_Municipal_Antonio_Azurmendy_2
   + y_AB_Ancud_Español_de_Talca_2_Gimnasio_Fiscal_de_Ancud_2
   + y_AB_Ancud_Español_de_Talca_2_Gimnasio_Monumental_María_Gallardo_2
   + y_AB_Ancud_Español_de_Talca_2_Gimnasio_Fiscal_de_Castro_2
   + y_AB_Ancud_Español_de_Talca_2_Gimnasio_de_Las_Ánimas_2
   + y_AB_Ancud_Español_de_Talca_2_Gimnasio_Municipal_Mario_Merchant_Binder_2
   + y_AB_Ancud_Español_de_Talca_3_Gimnasio_Colegio_Los_Leones_2
   + y_AB_Ancud_Español_de_Talca_3_Gimnasio_Regional_de_Talca_2
   + y_AB_Ancud_Español_de_Talca_3_Gimnasio_Municipal_de_San_Fernando_2
   + y_AB_Ancud_Español_de_Talca_3_Estadio_Palestino_2
   + y_AB_Ancud_Español_de_Talca_3_Casa_del_Deporte_2
   + y_AB_Ancud_Español_de_Talca_3_Gimnasio_Municipal_de_Puente_Alto_2
   + y_AB_Ancud_Español_de_Talca_3_Coliseo_Municipal_Antonio_Azurmendy_2
   + y_AB_Ancud_Español_de_Talca_3_Gimnasio_Fiscal_de_Ancud_2
   + y_AB_Ancud_Español_de_Talca_3_Gimnasio_Monumental_María_Gallardo_2
   + y_AB_Ancud_Español_de_Talca_3_Gimnasio_Fiscal_de_Castro_2
   + y_AB_Ancud_Español_de_Talca_3_Gimnasio_de_Las_Ánimas_2
   + y_AB_Ancud_Español_de_Talca_3_Gimnasio_Municipal_Mario_Merchant_Binder_2
   + y_AB_Ancud_Español_de_Talca_4_Gimnasio_Colegio_Los_Leones_2
   + y_AB_Ancud_Español_de_Talca_4_Gimnasio_Regional_de_Talca_2
   + y_AB_Ancud_Español_de_Talca_4_Gimnasio_Municipal_de_San_Fernando_2
   + y_AB_Ancud_Español_de_Talca_4_Estadio_Palestino_2
   + y_AB_Ancud_Español_de_Talca_4_Casa_del_Deporte_2
   + y_AB_Ancud_Español_de_Talca_4_Gimnasio_Municipal_de_Puente_Alto_2
   + y_AB_Ancud_Español_de_Talca_4_Coliseo_Municipal_Antonio_Azurmendy_2
   + y_AB_Ancud_Español_de_Talca_4_Gimnasio_Fiscal_de_Ancud_2
   + y_AB_Ancud_Español_de_Talca_4_Gimnasio_Monumental_María_Gallardo_2
   + y_AB_Ancud_Español_de_Talca_4_Gimnasio_Fiscal_de_Castro_2
   + y_AB_Ancud_Español_de_Talca_4_Gimnasio_de_Las_Ánimas_2
   + y_AB_Ancud_Español_de_Talca_4_Gimnasio_Municipal_Mario_Merchant_Binder_2
   + y_AB_Ancud_Español_de_Talca_5_Gimnasio_Colegio_Los_Leones_2
   + y_AB_Ancud_Español_de_Talca_5_Gimnasio_Regional_de_Talca_2
   + y_AB_Ancud_Español_de_Talca_5_Gimnasio_Municipal_de_San_Fernando_2
   + y_AB_Ancud_Español_de_Talca_5_Estadio_Palestino_2
   + y_AB_Ancud_Español_de_Talca_5_Casa_del_Deporte_2
   + y_AB_Ancud_Español_de_Talca_5_Gimnasio_Municipal_de_Puente_Alto_2
   + y_AB_Ancud_Español_de_Talca_5_Coliseo_Municipal_Antonio_Azurmendy_2
   + y_AB_Ancud_Español_de_Talca_5_Gimnasio_Fiscal_de_Ancud_2
   + y_AB_Ancud_Español_de_Talca_5_Gimnasio_Monumental_María_Gallardo_2
   + y_AB_Ancud_Español_de_Talca_5_Gimnasio_Fiscal_de_Castro_2
   + y_AB_Ancud_Español_de_Talca_5_Gimnasio_de_Las_Ánimas_2
   + y_AB_Ancud_Español_de_Talca_5_Gimnasio_Municipal_Mario_Merchant_Binder_2
   = 1
Bounds
Binaries
 y_Español_de_Talca_AB_Ancud_1_Gimnasio_Colegio_Los_Leones_2
 y_Español_de_Talca_AB_Ancud_1_Gimnasio_Regional_de_Talca_2
 y_Español_de_Talca_AB_Ancud_1_Gimnasio_Municipal_de_San_Fernando_2
 y_Español_de_Talca_AB_Ancud_1_Estadio_Palestino_2
 y_Español_de_Talca_AB_Ancud_1_Casa_del_Deporte_2
 y_Español_de_Talca_AB_Ancud_1_Gimnasio_Municipal_de_Puente_Alto_2
 y_Español_de_Talca_AB_Ancud_1_Coliseo_Municipal_Antonio_Azurmendy_2
 y_Español_de_Talca_AB_Ancud_1_Gimnasio_Fiscal_de_Ancud_2
 y_Español_de_Talca_AB_Ancud_1_Gimnasio_Monumental_María_Gallardo_2
 y_Español_de_Talca_AB_Ancud_1_Gimnasio_Fiscal_de_Castro_2
 y_Español_de_Talca_AB_Ancud_1_Gimnasio_de_Las_Ánimas_2
 y_Español_de_Talca_AB_Ancud_1_Gimnasio_Municipal_Mario_Merchant_Binder_2
 y_Español_de_Talca_AB_Ancud_2_Gimnasio_Colegio_Los_Leones_2
 y_Español_de_Talca_AB_Ancud_2_Gimnasio_Regional_de_Talca_2
 y_Español_de_Talca_AB_Ancud_2_Gimnasio_Municipal_de_San_Fernando_2
 y_Español_de_Talca_AB_Ancud_2_Estadio_Palestino_2
 y_Español_de_Talca_AB_Ancud_2_Casa_del_Deporte_2
 y_Español_de_Talca_AB_Ancud_2_Gimnasio_Municipal_de_Puente_Alto_2
 y_Español_de_Talca_AB_Ancud_2_Coliseo_Municipal_Antonio_Azurmendy_2
 y_Español_de_Talca_AB_Ancud_2_Gimnasio_Fiscal_de_Ancud_2
 y_Español_de_Talca_AB_Ancud_2_Gimnasio_Monumental_María_Gallardo_2
 y_Español_de_Talca_AB_Ancud_2_Gimnasio_Fiscal_de_Castro_2
 y_Español_de_Talca_AB_Ancud_2_Gimnasio_de_Las_Ánimas_2
 y_Español_de_Talca_AB_Ancud_2_Gimnasio_Municipal_Mario_Merchant_Binder_2
 y_Español_de_Talca_AB_Ancud_3_Gimnasio_Colegio_Los_Leones_2
 y_Español_de_Talca_AB_Ancud_3_Gimnasio_Regional_de_Talca_2
 y_Español_de_Talca_AB_Ancud_3_Gimnasio_Municipal_de_San_Fernando_2
 y_Español_de_Talca_AB_Ancud_3_Estadio_Palestino_2
 y_Español_de_Talca_AB_Ancud_3_Casa_del_Deporte_2
 y_Español_de_Talca_AB_Ancud_3_Gimnasio_Municipal_de_Puente_Alto_2
 y_Español_de_Talca_AB_Ancud_3_Coliseo_Municipal_Antonio_Azurmendy_2
 y_Español_de_Talca_AB_Ancud_3_Gimnasio_Fiscal_de_Ancud_2
 y_Español_de_Talca_AB_Ancud_3_Gimnasio_Monumental_María_Gallardo_2
 y_Español_de_Talca_AB_Ancud_3_Gimnasio_Fiscal_de_Castro_2
 y_Español_de_Talca_AB_Ancud_3_Gimnasio_de_Las_Ánimas_2
 y_Español_de_Talca_AB_Ancud_3_Gimnasio_Municipal_Mario_Merchant_Binder_2
 y_Español_de_Talca_AB_Ancud_4_Gimnasio_Colegio_Los_Leones_2
 y_Español_de_Talca_AB_Ancud_4_Gimnasio_Regional_de_Talca_2
 y_Español_de_Talca_AB_Ancud_4_Gimnasio_Municipal_de_San_Fernando_2
 y_Español_de_Talca_AB_Ancud_4_Estadio_Palestino_2
 y_Español_de_Talca_AB_Ancud_4_Casa_del_Deporte_2
 y_Español_de_Talca_AB_Ancud_4_Gimnasio_Municipal_de_Puente_Alto_2
 y_Español_de_Talca_AB_Ancud_4_Coliseo_Municipal_Antonio_Azurmendy_2
 y_Español_de_Talca_AB_Ancud_4_Gimnasio_Fiscal_de_Ancud_2
 y_Español_de_Talca_AB_Ancud_4_Gimnasio_Monumental_María_Gallardo_2
 y_Español_de_Talca_AB_Ancud_4_Gimnasio_Fiscal_de_Castro_2
 y_Español_de_Talca_AB_Ancud_4_Gimnasio_de_Las_Ánimas_2
 y_Español_de_Talca_AB_Ancud_4_Gimnasio_Municipal_Mario_Merchant_Binder_2
 y_Español_de_Talca_AB_Ancud_5_Gimnasio_Colegio_Los_Leones_2
 y_Español_de_Talca_AB_Ancud_5_Gimnasio_Regional_de_Talca_2
 y_Español_de_Talca_AB_Ancud_5_Gimnasio_Municipal_de_San_Fernando_2
 y_Español_de_Talca_AB_Ancud_5_Estadio_Palestino_2
 y_Español_de_Talca_AB_Ancud_5_Casa_del_Deporte_2
 y_Español_de_Talca_AB_Ancud_5_Gimnasio_Municipal_de_Puente_Alto_2
 y_Español_de_Talca_AB_Ancud_5_Coliseo_Municipal_Antonio_Azurmendy_2
 y_Español_de_Talca_AB_Ancud_5_Gimnasio_Fiscal_de_Ancud_2
 y_Español_de_Talca_AB_Ancud_5_Gimnasio_Monumental_María_Gallardo_2
 y_Español_de_Talca_AB_Ancud_5_Gimnasio_Fiscal_de_Castro_2
 y_Español_de_Talca_AB_Ancud_5_Gimnasio_de_Las_Ánimas_2
 y_Español_de_Talca_AB_Ancud_5_Gimnasio_Municipal_Mario_Merchant_Binder_2
 y_AB_Ancud_Español_de_Talca_1_Gimnasio_Colegio_Los_Leones_2
 y_AB_Ancud_Español_de_Talca_1_Gimnasio_Regional_de_Talca_2
 y_AB_Ancud_Español_de_Talca_1_Gimnasio_Municipal_de_San_Fernando_2
 y_AB_Ancud_Español_de_Talca_1_Estadio_Palestino_2
 y_AB_Ancud_Español_de_Talca_1_Casa_del_Deporte_2
 y_AB_Ancud_Español_de_Talca_1_Gimnasio_Municipal_de_Puente_Alto_2
 y_AB_Ancud_Español_de_Talca_1_Coliseo_Municipal_Antonio_Azurmendy_2
 y_AB_Ancud_Español_de_Talca_1_Gimnasio_Fiscal_de_Ancud_2
 y_AB_Ancud_Español_de_Talca_1_Gimnasio_Monumental_María_Gallardo_2
 y_AB_Ancud_Español_de_Talca_1_Gimnasio_Fiscal_de_Castro_2
 y_AB_Ancud_Español_de_Talca_1_Gimnasio_de_Las_Ánimas_2
 y_AB_Ancud_Español_de_Talca_1_Gimnasio_Municipal_Mario_Merchant_Binder_2
 y_AB_Ancud_Español_de_Talca_2_Gimnasio_Colegio_Los_Leones_2
 y_AB_Ancud_Español_de_Talca_2_Gimnasio_Regional_de_Talca_2
 y_AB_Ancud_Español_de_Talca_2_Gimnasio_Municipal_de_San_Fernando_2
 y_AB_Ancud_Español_de_Talca_2_Estadio_Palestino_2
 y_AB_Ancud_Español_de_Talca_2_Casa_del_Deporte_2
 y_AB_Ancud_Español_de_Talca_2_Gimnasio_Municipal_de_Puente_Alto_2
 y_AB_Ancud_Español_de_Talca_2_Coliseo_Municipal_Antonio_Azurmendy_2
 y_AB_Ancud_Español_de_Talca_2_Gimnasio_Fiscal_de_Ancud_2
 y_AB_Ancud_Español_de_Talca_2_Gimnasio_Monumental_María_Gallardo_2
 y_AB_Ancud_Español_de_Talca_2_Gimnasio_Fiscal_de_Castro_2
 y_AB_Ancud_Español_de_Talca_2_Gimnasio_de_Las_Ánimas_2
 y_AB_Ancud_Español_de_Talca_2_Gimnasio_Municipal_Mario_Merchant_Binder_2
 y_AB_Ancud_Español_de_Talca_3_Gimnasio_Colegio_Los_Leones_2
 y_AB_Ancud_Español_de_Talca_3_Gimnasio_Regional_de_Talca_2
 y_AB_Ancud_Español_de_Talca_3_Gimnasio_Municipal_de_San_Fernando_2
 y_AB_Ancud_Español_de_Talca_3_Estadio_Palestino_2
 y_AB_Ancud_Español_de_Talca_3_Casa_del_Deporte_2
 y_AB_Ancud_Español_de_Talca_3_Gimnasio_Municipal_de_Puente_Alto_2
 y_AB_Ancud_Español_de_Talca_3_Coliseo_Municipal_Antonio_Azurmendy_2
 y_AB_Ancud_Español_de_Talca_3_Gimnasio_Fiscal_de_Ancud_2
 y_AB_Ancud_Español_de_Talca_3_Gimnasio_Monumental_María_Gallardo_2
 y_AB_Ancud_Español_de_Talca_3_Gimnasio_Fiscal_de_Castro_2
 y_AB_Ancud_Español_de_Talca_3_Gimnasio_de_Las_Ánimas_2
 y_AB_Ancud_Español_de_Talca_3_Gimnasio_Municipal_Mario_Merchant_Binder_2
 y_AB_Ancud_Español_de_Talca_4_Gimnasio_Colegio_Los_Leones_2
 y_AB_Ancud_Español_de_Talca_4_Gimnasio_Regional_de_Talca_2
 y_AB_Ancud_Español_de_Talca_4_Gimnasio_Municipal_de_San_Fernando_2
 y_AB_Ancud_Español_de_Talca_4_Estadio_Palestino_2
 y_AB_Ancud_Español_de_Talca_4_Casa_del_Deporte_2
 y_AB_Ancud_Español_de_Talca_4_Gimnasio_Municipal_de_Puente_Alto_2
 y_AB_Ancud_Español_de_Talca_4_Coliseo_Municipal_Antonio_Azurmendy_2
 y_AB_Ancud_Español_de_Talca_4_Gimnasio_Fiscal_de_Ancud_2
 y_AB_Ancud_Español_de_Talca_4_Gimnasio_Monumental_María_Gallardo_2
 y_AB_Ancud_Español_de_Talca_4_Gimnasio_Fiscal_de_Castro_2
 y_AB_Ancud_Español_de_Talca_4_Gimnasio_de_Las_Ánimas_2
 y_AB_Ancud_Español_de_Talca_4_Gimnasio_Municipal_Mario_Merchant_Binder_2
 y_AB_Ancud_Español_de_Talca_5_Gimnasio_Colegio_Los_Leones_2
 y_AB_Ancud_Español_de_Talca_5_Gimnasio_Regional_de_Talca_2
 y_AB_Ancud_Español_de_Talca_5_Gimnasio_Municipal_de_San_Fernando_2
 y_AB_Ancud_Español_de_Talca_5_Estadio_Palestino_2
 y_AB_Ancud_Español_de_Talca_5_Casa_del_Deporte_2
 y_AB_Ancud_Español_de_Talca_5_Gimnasio_Municipal_de_Puente_Alto_2
 y_AB_Ancud_Español_de_Talca_5_Coliseo_Municipal_Antonio_Azurmendy_2
 y_AB_Ancud_Español_de_Talca_5_Gimnasio_Fiscal_de_Ancud_2
 y_AB_Ancud_Español_de_Talca_5_Gimnasio_Monumental_María_Gallardo_2
 y_AB_Ancud_Español_de_Talca_5_Gimnasio_Fiscal_de_Castro_2
 y_AB_Ancud_Español_de_Talca_5_Gimnasio_de_Las_Ánimas_2
 y_AB_Ancud_Español_de_Talca_5_Gimnasio_Municipal_Mario_Merchant_Binder_2
End
